225999
225999
225999
220206
220206
220206
218794
218794
218794
218794
217372
217372
217372
217372
217372
214805
214805
214805
212030
211701
211701
211701
211701
209171
207021
207021
207021
207021
206720
202380
202380
197208
197208
197208
197208
197208
195022
195022
195022
195022
195022
195022
195022
194676
194676
194676
194676
194676
194676
194676
194676
194676
189713
189713
189713
189713
189713
189713
189713
189713
189713
189713
189713
189713
189713
189713
189713
189713
189713
189713
189713
189713
189713
189713
189713
189678
189678
189678
189247
188112
182859
182859
182859
182859
182859
182859
181850
181850
181850
181850
181850
181850
181850
181850
177387
177387
177387
177387
177387
177387
